benchmark_instances/dzn_benchmark_instances/benchmark_instance_13-4.dzn
% Input: sequence of points
seq_points = [|7,1
              |8,1
              |4,2
              |5,2
              |8,2
              |9,2
              |10,2
              |11,2
              |3,3
              |4,3
              |5,3
              |7,3
              |9,3
              |10,3
              |3,4
              |5,4
              |11,4
              |12,4
              |4,5
              |6,5
              |7,5
              |9,5
              |4,6
              |5,6
              |6,6
              |9,6
              |5,7
              |6,7
              |10,7
              |12,7
              |6,8
              |10,8
              |5,0
              |7,0
              |13,0
              |13,13
              |0,13
              |0,0
             |];

num_points = 38;
