benchmark_instances/lp_benchmark_instances/benchmark_instance_13-4.lp
% Input: sequence of points
point(7,1).
point(8,1).
point(4,2).
point(5,2).
point(8,2).
point(9,2).
point(10,2).
point(11,2).
point(3,3).
point(4,3).
point(5,3).
point(7,3).
point(9,3).
point(10,3).
point(3,4).
point(5,4).
point(11,4).
point(12,4).
point(4,5).
point(6,5).
point(7,5).
point(9,5).
point(4,6).
point(5,6).
point(6,6).
point(9,6).
point(5,7).
point(6,7).
point(10,7).
point(12,7).
point(6,8).
point(10,8).
point(5,0).
point(7,0).
point(13,0).
point(13,13).
point(0,13).
point(0,0).
